outputs/case_359.model.txt
regulatory_threshold = 0
no_part_time_violation = False
improvement_plan_executed = False
net_worth_ratio = -10
loan_amount = 60000000
net_worth = -1000000
total_loan_amount = 400000000
company_equity = 5000000000
single_loan_amount = 60000000
related_party_loan_amount = 70000000
capital_fund = 1000000000
board_attendance_ratio = 6666666667/10000000000
capital_level_4_measures_completed = True
adjustment_made_within_deadline = True
board_approval_ratio = 3/4
capital_adequacy_ratio = 40
capital_level_3_measures_completed = False
improvement_plan_submitted = False
no_conflict_of_interest = False
investment_amount = 10000000
internal_control_system_established = True
related_party_no_preferential_terms = True
internal_handling_system_executed = True
internal_handling_system_established = True
related_party_sufficient_collateral = True
no_preferential_terms = True
sufficient_collateral = True
internal_control_system_executed = True
loan_guarantee_board_approval = True
internal_handling_established = True
related_party_loan_board_approval = True
loan_related_party_no_sufficient_collateral_or_preferential_terms = False
capital_level_2_measures_executed = False
capital_level = 4
related_party_loan_limit = 1
loan_total_limit = 0
responsible_person_conflict_of_interest = False
loan_guarantee_limit_per_unit = 0
responsible_person_qualification = True
internal_control_executed = True
violation_internal_control = False
penalty = False
loan_guarantee_sufficient_collateral = True
meets_qualification_criteria = True
responsible_person_adjusted = True
loan_and_investment_limit_combined = 1
internal_handling_executed = True
internal_control_established = True
violation_internal_handling = False
loan_no_sufficient_collateral_or_preferential_terms = False
capital_level_4_measures_executed = True
capital_level_3_measures_executed = False